p cnf 30 21
c p distribution  0.95 0.05
c p distribution  0.94 0.06
c p distribution  0.29 0.71
c p distribution  0.001 0.999
c p distribution  0.01 0.99
c p distribution  0.02 0.98
c p distribution  0.9 0.1
c p distribution  0.05 0.95
c p distribution  0.7 0.3
c p distribution  0.01 0.99
21 -23 -25 -1 0
22 -23 -25 -2 0
21 -23 -26 -3 0
22 -23 -26 -4 0
21 -24 -25 -5 0
22 -24 -25 -6 0
21 -24 -26 -7 0
22 -24 -26 -8 0
23 -9 0
24 -10 0
25 -11 0
26 -12 0
27 -21 -13 0
28 -21 -14 0
27 -22 -15 0
28 -22 -16 0
29 -21 -17 0
30 -21 -18 0
29 -22 -19 0
30 -22 -20 0
-30 0

